Minimize
  10000 0 + 10020 1 + 10020.39607805437 2 + 10024.33105012119 3 + 10026 4
   + 10030 5 + 10030.26549190084 6 + 10030.26549190084 7 + 10032 8
   + 10032.2490309932 9 + 10033.52610922848 10 + 10036.22154055255 11
   + 10036.22154055255 12 + 10037.36308338454 13 + 10038 14
   + 10039.29376540878 15 + 10040.19950248448 16 + 10041.23105625618 17
   + 10061.611687203 18 + 10066.60330322139 19 + 10070.71067811865 20
   + 10072.11102550928 21 + 10076.15773105864 22 + 10078.10249675907 23
   + 10078.71467461662 24 + 10080.62257748299 25 + 10024.36356408778 26
   + 10028.38516480713 27 + 10030 28 + 10030.29827101102 29
   + 10030.33078497761 30 + 10032.25726144702 31 + 10032.37538663754 32
   + 10033.83095189484 33 + 10036.23528577287 34 + 10036.2435162267 35
   + 10036.93919740102 36 + 10036.93919740102 37 + 10037.76305461424 38
   + 10038 39 + 10038.05692832981 40 + 10038.41160846433 41
   + 10038.47937616598 42 + 10038.96686837653 43 + 10039.34683825377 44
   + 10039.34683825377 45 + 10039.40993731863 46 + 10039.79231196854 47
   + 10039.88757011084 48 + 10040.0667064994 49 + 10040.21052151852 50
   + 10029.18875510978 51 + 10030.33078497761 52 + 10030.55068986773 53
   + 10030.58320383432 54 + 10030.77107633606 55 + 10032.13274595042 56
   + 10033.17897694019 57 + 10033.83095189484 58 + 10034.13274595042 59
   + 10034.54091169814 60 + 10034.6345421975 61 + 10035.99647695544 62
   + 10036.2435162267 63 + 10038.41983891816 64 + 10038.7156521817 65
   + 10038.73829722589 66 + 10039.19703301445 67 + 10039.34683825377 68
   + 10039.80605718887 69 + 10039.81428764269 70 + 10039.89580056466 71
   + 10040.06449510225 72 + 10040.50996881702 73 + 10040.69367650755 74
   + 10040.92817836699 75 + 10030.58320383432 76 + 10030.80359030265 77
   + 10032.1655250606 78 + 10032.19803902719 79 + 10034.24264068712 80
   + 10034.57342566473 81 + 10036.02899092203 82 + 10039.07194335144 83
   + 10039.07194335144 84 + 10039.81428764269 85 + 10039.89580056466 86
   + 10040.08513547966 87 + 10040.13274595042 88 + 10040.97348779513 89
   + 10041.41133335602 90 + 10041.84094988292 91 + 10042.19945244983 92
   + 10042.70463314766 93 + 10042.70463314766 94 + 10042.7156521817 95
   + 10042.91760966977 96 + 10043.41133335602 97 + 10043.41404226998 98
   + 10043.51885843175 99 + 10043.61058054966 100 + 10032.19803902719 101
   + 10035.04623098977 102 + 10036.40816574772 103 + 10041.32977896487 104
   + 10041.4795842042 105 + 10042.19724105267 106 + 10042.64271476744 107
   + 10043.06092431741 108 + 10043.07194335144 109 + 10043.1877881367 110
   + 10043.65590689565 111 + 10043.77033343973 112 + 10043.84094988292 113
   + 10043.84094988292 114 + 10044.91330715629 115 + 10044.98210477201 116
   + 10045.18225247872 117 + 10045.1877881367 118 + 10045.1877881367 119
   + 10045.77962865481 120 + 10046.19544460694 121 + 10046.28642359769 122
   + 10046.62151108878 123 + 10046.64271476744 124 + 10046.8472935921 125
   + 10036.44067971431 126 + 10043.54407930644 127 + 10045.05035562019 128
   + 10045.1877881367 129 + 10045.1877881367 130 + 10045.2482660429 131
   + 10045.54407930644 132 + 10046.26145817112 133 + 10046.64271476744 134
   + 10046.75855955269 135 + 10046.91330715629 136 + 10046.97780225853 137
   + 10047.21360705502 138 + 10047.38547963775 139 + 10048.62151108878 140
   + 10048.62151108878 141 + 10048.75855955269 142 + 10048.75855955269 143
   + 10048.92282465672 144 + 10049.30528882348 145 + 10049.39477485283 146
   + 10049.66647559287 147 + 10049.95760451619 148 + 10050.13274595042 149
   + 10050.5554975246 150 + 10047.11485072244 151 + 10048.52179637301 152
   + 10048.75855955269 153 + 10048.75855955269 154 + 10049.11485072244 155
   + 10049.65438843372 156 + 10049.86863462678 157 + 10050.53109158809 158
   + 10050.62151108878 159 + 10050.80279232813 160 + 10050.82875325304 161
   + 10051.29809726397 162 + 10051.29809726397 163 + 10051.4795842042 164
   + 10051.56672435063 165 + 10051.65438843372 166 + 10051.87792984187 167
   + 10052.14963058191 168 + 10052.74856243877 169 + 10052.87606023947 170
   + 10053.24737997705 171 + 10053.52837593218 172 + 10054.90125652359 173
   + 10054.91330715629 174 + 10055.25667519214 175 + 10049.7204019979 176
   + 10049.86863462678 177 + 10051.36411082815 178 + 10051.36411082815 179
   + 10051.7204019979 180 + 10051.87792984187 181 + 10052.14963058191 182
   + 10052.91356260441 183 + 10053.30235757887 184 + 10053.31190824207 185
   + 10053.43940604277 186 + 10054.96727008778 187 + 10055.05035562019 188
   + 10055.31165279395 189 + 10055.44870125786 190 + 10055.58335353399 191
   + 10055.7204019979 192 + 10056.31933385477 193 + 10056.34728555649 194
   + 10056.69065359235 195 + 10057.24563922977 196 + 10059.44291832351 197
   + 10060.96088528759 198 + 10061.45221353859 199 + 10061.72391427863 200
   + 10053.43940604277 201 + 10055.44870125786 202 + 10055.7204019979 203
   + 10055.97894375406 204 + 10056.4843340204 205 + 10056.88267965807 206
   + 10057.31165279395 207 + 10057.98823896914 208 + 10058.25993970918 209
   + 10059.02387173168 210 + 10059.42221736935 211 + 10061.76447559024 212
   + 10061.95590337769 213 + 10063.12641034819 214 + 10063.96519859278 215
   + 10064.23689933282 216 + 10065.00083135532 217 + 10065.18368103657 218
   + 10065.39917699299 219 + 10067.19297625166 220 + 10067.4646769917 221
   + 10068.2286090142 222 + 10068.62695465187 223 + 10070.25889915659 224
   + 10088.04336153889 225 + 10056.04495731824 226 + 10058.05425253332 227
   + 10058.32595327337 228 + 10059.08988529587 229 + 10059.48823093353 230
   + 10063.15892431478 231 + 10065.21619500316 232 + 10067.22549021825 233
   + 10067.49719095829 234 + 10068.26112298079 235 + 10068.65946861845 236
   + 10068.99220368087 237 + 10071.00149889596 238 + 10071.273199636 239
   + 10072.0371316585 240 + 10072.43547729617 241 + 10092.98766203972 242
   + 10095.0449327281 243 + 10097.05422794319 244 + 10097.32592868323 245
   + 10098.08986070573 246 + 10098.4882063434 247
Subject To
 target_247: 13 + 40 + 41 + 47 + 49 + 64 + 69 + 70 + 73 + 85 + 92 + 96 + 99
   + 107 + 111 + 115 + 116 + 122 + 123 + 124 + 128 + 131 + 133 + 134 + 135
   + 136 + 137 + 140 + 141 + 142 + 143 + 144 + 151 + 153 + 154 + 155 + 159
   + 170 + 171 + 172 + 174 + 175 + 176 + 178 + 179 + 180 + 184 + 186 + 187
   + 188 + 189 + 190 + 191 + 192 + 193 + 194 + 195 + 201 + 202 + 203 + 205
   + 206 + 207 + 225 + 226 + 227 + 228 + 229 + 230 + 242 + 243 + 244 + 245
   + 246 + 247 = 1
 target_247: 17 + 117 + 121 + 125 + 131 + 133 + 136 + 150 + 156 + 159 + 162
   + 163 + 166 + 173 + 176 + 178 + 179 + 180 + 187 + 196 + 204 + 207 + 208
   + 209 + 210 + 211 + 224 + 226 + 227 + 228 + 229 + 230 + 237 + 238 + 239
   + 240 + 241 = 1
 target_247: 9 + 31 + 34 + 41 + 48 + 59 + 63 + 64 + 65 + 66 + 69 + 71 + 83
   + 84 + 85 + 86 + 87 + 88 + 89 + 91 + 92 + 93 + 94 + 95 + 98 + 99 + 100
   + 104 + 105 + 106 + 107 + 108 + 109 + 110 + 111 + 112 + 113 + 114 + 115
   + 117 + 118 + 119 + 120 + 121 + 122 + 123 + 124 + 125 + 127 + 128 + 129
   + 130 + 131 + 132 + 133 + 134 + 135 + 136 + 137 + 138 + 139 + 140 + 141
   + 142 + 143 + 144 + 145 + 146 + 147 + 148 + 149 + 150 + 151 + 152 + 153
   + 154 + 155 + 156 + 157 + 158 + 159 + 160 + 161 + 162 + 163 + 164 + 165
   + 166 + 167 + 168 + 169 + 170 + 171 + 172 + 173 + 174 + 175 + 176 + 177
   + 178 + 179 + 180 + 181 + 182 + 183 + 184 + 185 + 186 + 187 + 188 + 189
   + 190 + 191 + 192 + 193 + 194 + 195 + 196 + 197 + 198 + 199 + 200 + 201
   + 202 + 203 + 204 + 205 + 206 + 207 + 208 + 209 + 210 + 211 + 212 + 213
   + 214 + 215 + 216 + 217 + 218 + 219 + 220 + 221 + 222 + 223 + 224 + 225
   + 226 + 227 + 228 + 229 + 230 + 231 + 232 + 233 + 234 + 235 + 236 + 237
   + 238 + 239 + 240 + 241 + 242 + 243 + 244 + 245 + 246 + 247 = 1
 target_247: 11 + 34 + 35 + 36 + 45 + 47 + 63 + 68 + 69 + 70 + 73 + 74 + 83
   + 85 + 87 + 90 + 95 + 96 + 97 + 105 + 107 + 109 + 110 + 111 + 116 + 117
   + 118 + 119 + 121 + 122 + 127 + 128 + 129 + 130 + 131 + 132 + 133 + 134
   + 135 + 142 + 143 + 145 + 148 + 151 + 153 + 154 + 155 + 156 + 157 + 162
   + 163 + 164 + 166 + 167 + 168 + 169 + 170 + 172 + 176 + 177 + 178 + 179
   + 180 + 181 + 182 + 183 + 185 + 186 + 188 + 190 + 192 + 193 + 201 + 202
   + 203 + 204 + 205 + 206 + 208 + 209 + 210 + 211 + 213 + 215 + 216 + 217
   + 218 + 219 + 220 + 221 + 222 + 223 + 226 + 227 + 228 + 229 + 230 + 232
   + 233 + 234 + 235 + 236 + 237 + 238 + 239 + 240 + 241 + 243 + 244 + 245
   + 246 + 247 = 1
 target_247: 6 + 31 + 35 + 40 + 43 + 59 + 63 + 64 + 65 + 66 + 70 + 71 + 83
   + 84 + 85 + 86 + 87 + 88 + 89 + 91 + 92 + 93 + 94 + 95 + 98 + 99 + 100
   + 104 + 105 + 106 + 107 + 108 + 109 + 110 + 111 + 112 + 113 + 114 + 115
   + 117 + 118 + 119 + 120 + 121 + 122 + 123 + 124 + 125 + 127 + 128 + 129
   + 130 + 131 + 132 + 133 + 134 + 135 + 136 + 137 + 138 + 139 + 140 + 141
   + 142 + 143 + 144 + 145 + 146 + 147 + 148 + 149 + 150 + 151 + 152 + 153
   + 154 + 155 + 156 + 157 + 158 + 159 + 160 + 161 + 162 + 163 + 164 + 165
   + 166 + 167 + 168 + 169 + 170 + 171 + 172 + 173 + 174 + 175 + 176 + 177
   + 178 + 179 + 180 + 181 + 182 + 183 + 184 + 185 + 186 + 187 + 188 + 189
   + 190 + 191 + 192 + 193 + 194 + 195 + 196 + 197 + 198 + 199 + 200 + 201
   + 202 + 203 + 204 + 205 + 206 + 207 + 208 + 209 + 210 + 211 + 212 + 213
   + 214 + 215 + 216 + 217 + 218 + 219 + 220 + 221 + 222 + 223 + 224 + 225
   + 226 + 227 + 228 + 229 + 230 + 231 + 232 + 233 + 234 + 235 + 236 + 237
   + 238 + 239 + 240 + 241 + 242 + 243 + 244 + 245 + 246 + 247 = 1
 target_247: 14 + 39 + 44 + 45 + 66 + 68 + 72 + 74 + 87 + 88 + 90 + 91 + 96
   + 99 + 105 + 106 + 110 + 111 + 113 + 114 + 115 + 116 + 121 + 123 + 125
   + 127 + 128 + 129 + 130 + 133 + 135 + 136 + 137 + 140 + 141 + 149 + 150
   + 151 + 152 + 153 + 154 + 156 + 158 + 159 + 160 + 162 + 163 + 164 + 165
   + 174 + 176 + 177 + 178 + 179 + 181 + 182 + 183 + 184 + 188 + 189 + 191
   + 194 + 196 + 197 + 198 + 199 + 200 + 201 + 202 + 203 + 204 + 205 + 207
   + 208 + 209 + 210 + 212 + 213 + 214 + 215 + 216 + 217 + 218 + 220 + 221
   + 222 + 224 + 225 + 226 + 227 + 228 + 229 + 231 + 232 + 233 + 234 + 235
   + 237 + 238 + 239 + 240 + 242 + 243 + 244 + 245 + 246 = 1
 target_247: 8 + 36 + 37 + 38 + 39 + 49 + 59 + 67 + 68 + 72 + 73 + 75 + 83
   + 84 + 86 + 88 + 90 + 92 + 93 + 96 + 97 + 100 + 104 + 105 + 106 + 107
   + 108 + 109 + 112 + 113 + 115 + 116 + 117 + 118 + 120 + 124 + 125 + 127
   + 128 + 129 + 131 + 132 + 134 + 136 + 137 + 138 + 139 + 140 + 142 + 144
   + 145 + 146 + 147 + 148 + 149 + 150 + 151 + 152 + 153 + 155 + 156 + 157
   + 158 + 159 + 160 + 161 + 162 + 164 + 165 + 166 + 167 + 168 + 169 + 170
   + 171 + 172 + 173 + 174 + 175 + 176 + 177 + 178 + 180 + 181 + 182 + 183
   + 184 + 185 + 186 + 187 + 188 + 189 + 190 + 191 + 192 + 193 + 194 + 195
   + 196 + 197 + 198 + 199 + 200 + 201 + 202 + 203 + 204 + 205 + 206 + 207
   + 208 + 209 + 210 + 211 + 212 + 213 + 214 + 215 + 216 + 217 + 218 + 219
   + 220 + 221 + 222 + 223 + 224 + 225 + 226 + 227 + 228 + 229 + 230 + 231
   + 232 + 233 + 234 + 235 + 236 + 237 + 238 + 239 + 240 + 241 + 242 + 243
   + 244 + 245 + 246 + 247 = 1
 target_247: 12 + 37 + 42 + 44 + 50 + 65 + 67 + 72 + 74 + 75 + 84 + 89 + 90
   + 91 + 94 + 95 + 97 + 98 + 104 + 106 + 108 + 109 + 110 + 112 + 114 + 116
   + 119 + 122 + 123 + 124 + 127 + 130 + 132 + 134 + 135 + 137 + 138 + 139
   + 141 + 143 + 144 + 145 + 147 + 148 + 151 + 152 + 154 + 155 + 156 + 157
   + 160 + 161 + 163 + 165 + 166 + 168 + 169 + 170 + 171 + 172 + 173 + 176
   + 177 + 179 + 180 + 182 + 183 + 184 + 185 + 186 + 187 + 191 + 192 + 193
   + 194 + 195 + 197 + 198 + 200 + 201 + 203 + 204 + 205 + 206 + 209 + 210
   + 211 + 212 + 213 + 214 + 216 + 217 + 218 + 219 + 221 + 222 + 223 + 225
   + 226 + 228 + 229 + 230 + 231 + 232 + 234 + 235 + 236 + 237 + 239 + 240
   + 241 + 242 + 243 + 245 + 246 + 247 = 1
 target_247: 16 + 50 + 75 + 93 + 94 + 97 + 108 + 113 + 114 + 118 + 119
   + 129 + 130 + 132 + 139 + 140 + 141 + 142 + 143 + 144 + 146 + 147 + 150
   + 152 + 153 + 154 + 155 + 157 + 158 + 159 + 160 + 161 + 162 + 163 + 166
   + 167 + 168 + 171 + 173 + 175 + 177 + 178 + 179 + 180 + 181 + 182 + 184
   + 185 + 186 + 187 + 189 + 190 + 191 + 192 + 195 + 196 + 197 + 198 + 199
   + 200 + 201 + 202 + 203 + 204 + 206 + 207 + 208 + 209 + 211 + 212 + 213
   + 214 + 215 + 216 + 218 + 219 + 220 + 221 + 223 + 224 + 225 + 226 + 227
   + 228 + 230 + 231 + 232 + 233 + 234 + 236 + 237 + 238 + 239 + 241 + 242
   + 243 + 244 + 245 + 247 = 1
 target_247: 10 + 38 + 42 + 43 + 46 + 48 + 67 + 71 + 86 + 89 + 104 + 120
   + 138 + 146 + 147 + 148 + 149 + 158 + 160 + 161 + 164 + 165 + 167 + 168
   + 169 + 172 + 174 + 175 + 181 + 182 + 183 + 185 + 188 + 189 + 190 + 191
   + 192 + 193 + 194 + 195 + 196 + 199 + 200 + 202 + 203 + 205 + 206 + 207
   + 208 + 209 + 210 + 211 + 215 + 216 + 217 + 219 + 220 + 221 + 222 + 223
   + 224 + 227 + 228 + 229 + 230 + 233 + 234 + 235 + 236 + 238 + 239 + 240
   + 241 + 244 + 245 + 246 + 247 = 1
 target_247: 15 + 46 + 98 + 100 + 112 + 120 + 138 + 139 + 145 + 146 + 149
   + 152 + 157 + 158 + 161 + 164 + 165 + 167 + 169 + 170 + 171 + 173 + 174
   + 175 + 177 + 181 + 183 + 184 + 185 + 186 + 187 + 188 + 189 + 190 + 193
   + 194 + 195 + 196 + 197 + 198 + 199 + 201 + 202 + 204 + 205 + 206 + 207
   + 208 + 210 + 211 + 212 + 213 + 214 + 215 + 217 + 218 + 219 + 220 + 222
   + 223 + 224 + 225 + 226 + 227 + 229 + 230 + 231 + 232 + 233 + 235 + 236
   + 237 + 238 + 240 + 241 + 242 + 243 + 244 + 246 + 247 = 1
 target_247: 22 = 1
 target_247: 18 = 1
 target_247: 24 = 1
 target_247: 21 = 1
 target_247: 25 = 1
 target_247: 19 = 1
 target_247: 20 = 1
 target_247: 23 = 1
 target_247: 1 + 27 + 28 + 51 + 53 + 54 + 55 + 56 + 58 + 76 + 77 + 78 + 79
   + 80 + 101 + 102 + 103 + 126 = 1
 target_247: 2 + 26 + 30 + 51 + 52 + 54 + 57 + 61 + 76 + 77 + 79 + 81 + 82
   + 101 + 102 + 126 + 197 + 199 + 200 + 212 + 213 + 215 + 216 + 217 + 219
   + 224 + 231 + 232 + 233 + 234 + 235 + 236 + 237 + 238 + 239 + 240 + 241
   = 1
 target_247: 3 + 26 + 29 + 52 + 53 + 55 + 60 + 62 + 76 + 77 + 78 + 81 + 82
   + 101 + 103 + 126 + 214 + 218 + 220 + 221 + 222 + 223 + 231 + 232 + 233
   + 234 + 235 + 236 + 242 + 243 + 244 + 245 + 246 + 247 = 1
 target_247: 4 + 27 + 32 + 33 + 51 + 53 + 57 + 58 + 60 + 61 + 62 + 76 + 80
   + 81 + 82 + 102 + 103 + 126 + 198 + 212 + 214 + 225 + 231 + 242 = 1
 target_247: 5 + 28 + 33 + 54 + 55 + 56 + 58 + 61 + 62 + 77 + 78 + 79 + 80
   + 82 + 101 + 102 + 103 + 126 = 1
 target_247: 7 + 29 + 30 + 32 + 52 + 56 + 57 + 60 + 78 + 79 + 80 + 81 + 101
   + 102 + 103 + 126 = 1
Bounds
Binaries
 0 1 2 3 4 5 6 7 8 9 10 11 12 13 14 15 16 17 18 19 20 21 22 23 24 25 26 27
 28 29 30 31 32 33 34 35 36 37 38 39 40 41 42 43 44 45 46 47 48 49 50 51 52
 53 54 55 56 57 58 59 60 61 62 63 64 65 66 67 68 69 70 71 72 73 74 75 76 77
 78 79 80 81 82 83 84 85 86 87 88 89 90 91 92 93 94 95 96 97 98 99 100 101
 102 103 104 105 106 107 108 109 110 111 112 113 114 115 116 117 118 119
 120 121 122 123 124 125 126 127 128 129 130 131 132 133 134 135 136 137
 138 139 140 141 142 143 144 145 146 147 148 149 150 151 152 153 154 155
 156 157 158 159 160 161 162 163 164 165 166 167 168 169 170 171 172 173
 174 175 176 177 178 179 180 181 182 183 184 185 186 187 188 189 190 191
 192 193 194 195 196 197 198 199 200 201 202 203 204 205 206 207 208 209
 210 211 212 213 214 215 216 217 218 219 220 221 222 223 224 225 226 227
 228 229 230 231 232 233 234 235 236 237 238 239 240 241 242 243 244 245
 246 247
End
